r = [
0,159,94,32,130,122,12,2,208,255,193,6,61,278,224,17,100,283,184,154,107,175,180,235,198,244,0
];
p = [
0,15,9,12,9,6,3,4,23,17,23,29,9,10,28,14,28,11,17,10,12,1,1,22,10,20,0
];
e = [
0,18,11,17,19,6,6,5,9,20,11,18,11,20,16,15,1,10,11,16,14,18,9,15,4,3,0
];
d = [
0,207,120,82,173,153,54,20,246,305,236,37,110,320,261,66,149,318,230,182,152,221,202,259,243,264,321
];
d_bar = [
0,209,121,83,174,154,55,21,248,307,238,40,111,321,264,67,152,319,232,183,153,222,203,261,244,266,321
];
w = [
0,9,11,17,19,6,6,5,4.5,10,5.5,6,11,20,5.333333333,15,0.333333333,10,5.5,16,14,18,9,7.5,4,1.5,0
];
